NAME          
ROWS
 N  OBJ
 E  c1
 E  c2
 E  c3
 E  c4
 E  c5
 E  c6
 E  c7
 E  c8
 E  c9
 E  c10
 E  c11
 E  c12
 E  c13
 E  c14
 E  c15
 E  c16
 E  c17
 E  c18
 E  c19
 E  c20
 E  c21
 E  c22
 E  c23
 E  c24
 E  c25
 E  c26
 E  c27
 E  c28
 E  c29
 E  c30
COLUMNS
    MARKER    'MARKER'                 'INTORG'
    x[1,1]    c1        1
    x[1,1]    c16       1
    x[1,1]    OBJ       10
    x[2,1]    c1        1
    x[2,1]    c17       1
    x[2,1]    OBJ       14
    x[3,1]    c1        1
    x[3,1]    c18       1
    x[3,1]    OBJ       2
    x[4,1]    c1        1
    x[4,1]    c19       1
    x[4,1]    OBJ       15
    x[5,1]    c1        1
    x[5,1]    c20       1
    x[5,1]    OBJ       8
    x[6,1]    c1        1
    x[6,1]    c21       1
    x[6,1]    OBJ       2
    x[7,1]    c1        1
    x[7,1]    c22       1
    x[7,1]    OBJ       11
    x[8,1]    c1        1
    x[8,1]    c23       1
    x[8,1]    OBJ       12
    x[9,1]    c1        1
    x[9,1]    c24       1
    x[9,1]    OBJ       7
    x[10,1]   c1        1
    x[10,1]   c25       1
    x[10,1]   OBJ       10
    x[11,1]   c1        1
    x[11,1]   c26       1
    x[11,1]   OBJ       6
    x[12,1]   c1        1
    x[12,1]   c27       1
    x[12,1]   OBJ       13
    x[13,1]   c1        1
    x[13,1]   c28       1
    x[13,1]   OBJ       8
    x[14,1]   c1        1
    x[14,1]   c29       1
    x[14,1]   OBJ       10
    x[15,1]   c1        1
    x[15,1]   c30       1
    x[15,1]   OBJ       9
    x[1,2]    c2        1
    x[1,2]    c16       1
    x[1,2]    OBJ       6
    x[2,2]    c2        1
    x[2,2]    c17       1
    x[2,2]    OBJ       2
    x[3,2]    c2        1
    x[3,2]    c18       1
    x[3,2]    OBJ       5
    x[4,2]    c2        1
    x[4,2]    c19       1
    x[4,2]    OBJ       6
    x[5,2]    c2        1
    x[5,2]    c20       1
    x[5,2]    OBJ       2
    x[6,2]    c2        1
    x[6,2]    c21       1
    x[6,2]    OBJ       7
    x[7,2]    c2        1
    x[7,2]    c22       1
    x[7,2]    OBJ       4
    x[8,2]    c2        1
    x[8,2]    c23       1
    x[8,2]    OBJ       15
    x[9,2]    c2        1
    x[9,2]    c24       1
    x[9,2]    OBJ       1
    x[10,2]   c2        1
    x[10,2]   c25       1
    x[10,2]   OBJ       5
    x[11,2]   c2        1
    x[11,2]   c26       1
    x[11,2]   OBJ       11
    x[12,2]   c2        1
    x[12,2]   c27       1
    x[12,2]   OBJ       2
    x[13,2]   c2        1
    x[13,2]   c28       1
    x[13,2]   OBJ       5
    x[14,2]   c2        1
    x[14,2]   c29       1
    x[14,2]   OBJ       15
    x[15,2]   c2        1
    x[15,2]   c30       1
    x[15,2]   OBJ       12
    x[1,3]    c3        1
    x[1,3]    c16       1
    x[1,3]    OBJ       9
    x[2,3]    c3        1
    x[2,3]    c17       1
    x[2,3]    OBJ       12
    x[3,3]    c3        1
    x[3,3]    c18       1
    x[3,3]    OBJ       7
    x[4,3]    c3        1
    x[4,3]    c19       1
    x[4,3]    OBJ       8
    x[5,3]    c3        1
    x[5,3]    c20       1
    x[5,3]    OBJ       7
    x[6,3]    c3        1
    x[6,3]    c21       1
    x[6,3]    OBJ       5
    x[7,3]    c3        1
    x[7,3]    c22       1
    x[7,3]    OBJ       8
    x[8,3]    c3        1
    x[8,3]    c23       1
    x[8,3]    OBJ       12
    x[9,3]    c3        1
    x[9,3]    c24       1
    x[9,3]    OBJ       5
    x[10,3]   c3        1
    x[10,3]   c25       1
    x[10,3]   OBJ       15
    x[11,3]   c3        1
    x[11,3]   c26       1
    x[11,3]   OBJ       12
    x[12,3]   c3        1
    x[12,3]   c27       1
    x[12,3]   OBJ       5
    x[13,3]   c3        1
    x[13,3]   c28       1
    x[13,3]   OBJ       3
    x[14,3]   c3        1
    x[14,3]   c29       1
    x[14,3]   OBJ       10
    x[15,3]   c3        1
    x[15,3]   c30       1
    x[15,3]   OBJ       2
    x[1,4]    c4        1
    x[1,4]    c16       1
    x[1,4]    OBJ       2
    x[2,4]    c4        1
    x[2,4]    c17       1
    x[2,4]    OBJ       6
    x[3,4]    c4        1
    x[3,4]    c18       1
    x[3,4]    OBJ       2
    x[4,4]    c4        1
    x[4,4]    c19       1
    x[4,4]    OBJ       12
    x[5,4]    c4        1
    x[5,4]    c20       1
    x[5,4]    OBJ       4
    x[6,4]    c4        1
    x[6,4]    c21       1
    x[6,4]    OBJ       5
    x[7,4]    c4        1
    x[7,4]    c22       1
    x[7,4]    OBJ       15
    x[8,4]    c4        1
    x[8,4]    c23       1
    x[8,4]    OBJ       4
    x[9,4]    c4        1
    x[9,4]    c24       1
    x[9,4]    OBJ       11
    x[10,4]   c4        1
    x[10,4]   c25       1
    x[10,4]   OBJ       2
    x[11,4]   c4        1
    x[11,4]   c26       1
    x[11,4]   OBJ       11
    x[12,4]   c4        1
    x[12,4]   c27       1
    x[12,4]   OBJ       13
    x[13,4]   c4        1
    x[13,4]   c28       1
    x[13,4]   OBJ       11
    x[14,4]   c4        1
    x[14,4]   c29       1
    x[14,4]   OBJ       1
    x[15,4]   c4        1
    x[15,4]   c30       1
    x[15,4]   OBJ       1
    x[1,5]    c5        1
    x[1,5]    c16       1
    x[1,5]    OBJ       8
    x[2,5]    c5        1
    x[2,5]    c17       1
    x[2,5]    OBJ       6
    x[3,5]    c5        1
    x[3,5]    c18       1
    x[3,5]    OBJ       15
    x[4,5]    c5        1
    x[4,5]    c19       1
    x[4,5]    OBJ       2
    x[5,5]    c5        1
    x[5,5]    c20       1
    x[5,5]    OBJ       11
    x[6,5]    c5        1
    x[6,5]    c21       1
    x[6,5]    OBJ       10
    x[7,5]    c5        1
    x[7,5]    c22       1
    x[7,5]    OBJ       1
    x[8,5]    c5        1
    x[8,5]    c23       1
    x[8,5]    OBJ       15
    x[9,5]    c5        1
    x[9,5]    c24       1
    x[9,5]    OBJ       1
    x[10,5]   c5        1
    x[10,5]   c25       1
    x[10,5]   OBJ       13
    x[11,5]   c5        1
    x[11,5]   c26       1
    x[11,5]   OBJ       13
    x[12,5]   c5        1
    x[12,5]   c27       1
    x[12,5]   OBJ       14
    x[13,5]   c5        1
    x[13,5]   c28       1
    x[13,5]   OBJ       2
    x[14,5]   c5        1
    x[14,5]   c29       1
    x[14,5]   OBJ       9
    x[15,5]   c5        1
    x[15,5]   c30       1
    x[15,5]   OBJ       8
    x[1,6]    c6        1
    x[1,6]    c16       1
    x[1,6]    OBJ       9
    x[2,6]    c6        1
    x[2,6]    c17       1
    x[2,6]    OBJ       15
    x[3,6]    c6        1
    x[3,6]    c18       1
    x[3,6]    OBJ       8
    x[4,6]    c6        1
    x[4,6]    c19       1
    x[4,6]    OBJ       13
    x[5,6]    c6        1
    x[5,6]    c20       1
    x[5,6]    OBJ       2
    x[6,6]    c6        1
    x[6,6]    c21       1
    x[6,6]    OBJ       13
    x[7,6]    c6        1
    x[7,6]    c22       1
    x[7,6]    OBJ       7
    x[8,6]    c6        1
    x[8,6]    c23       1
    x[8,6]    OBJ       1
    x[9,6]    c6        1
    x[9,6]    c24       1
    x[9,6]    OBJ       3
    x[10,6]   c6        1
    x[10,6]   c25       1
    x[10,6]   OBJ       13
    x[11,6]   c6        1
    x[11,6]   c26       1
    x[11,6]   OBJ       15
    x[12,6]   c6        1
    x[12,6]   c27       1
    x[12,6]   OBJ       2
    x[13,6]   c6        1
    x[13,6]   c28       1
    x[13,6]   OBJ       12
    x[14,6]   c6        1
    x[14,6]   c29       1
    x[14,6]   OBJ       6
    x[15,6]   c6        1
    x[15,6]   c30       1
    x[15,6]   OBJ       14
    x[1,7]    c7        1
    x[1,7]    c16       1
    x[1,7]    OBJ       5
    x[2,7]    c7        1
    x[2,7]    c17       1
    x[2,7]    OBJ       10
    x[3,7]    c7        1
    x[3,7]    c18       1
    x[3,7]    OBJ       14
    x[4,7]    c7        1
    x[4,7]    c19       1
    x[4,7]    OBJ       11
    x[5,7]    c7        1
    x[5,7]    c20       1
    x[5,7]    OBJ       3
    x[6,7]    c7        1
    x[6,7]    c21       1
    x[6,7]    OBJ       5
    x[7,7]    c7        1
    x[7,7]    c22       1
    x[7,7]    OBJ       7
    x[8,7]    c7        1
    x[8,7]    c23       1
    x[8,7]    OBJ       10
    x[9,7]    c7        1
    x[9,7]    c24       1
    x[9,7]    OBJ       6
    x[10,7]   c7        1
    x[10,7]   c25       1
    x[10,7]   OBJ       9
    x[11,7]   c7        1
    x[11,7]   c26       1
    x[11,7]   OBJ       14
    x[12,7]   c7        1
    x[12,7]   c27       1
    x[12,7]   OBJ       13
    x[13,7]   c7        1
    x[13,7]   c28       1
    x[13,7]   OBJ       10
    x[14,7]   c7        1
    x[14,7]   c29       1
    x[14,7]   OBJ       15
    x[15,7]   c7        1
    x[15,7]   c30       1
    x[15,7]   OBJ       6
    x[1,8]    c8        1
    x[1,8]    c16       1
    x[1,8]    OBJ       11
    x[2,8]    c8        1
    x[2,8]    c17       1
    x[2,8]    OBJ       8
    x[3,8]    c8        1
    x[3,8]    c18       1
    x[3,8]    OBJ       5
    x[4,8]    c8        1
    x[4,8]    c19       1
    x[4,8]    OBJ       1
    x[5,8]    c8        1
    x[5,8]    c20       1
    x[5,8]    OBJ       4
    x[6,8]    c8        1
    x[6,8]    c21       1
    x[6,8]    OBJ       9
    x[7,8]    c8        1
    x[7,8]    c22       1
    x[7,8]    OBJ       12
    x[8,8]    c8        1
    x[8,8]    c23       1
    x[8,8]    OBJ       1
    x[9,8]    c8        1
    x[9,8]    c24       1
    x[9,8]    OBJ       11
    x[10,8]   c8        1
    x[10,8]   c25       1
    x[10,8]   OBJ       3
    x[11,8]   c8        1
    x[11,8]   c26       1
    x[11,8]   OBJ       7
    x[12,8]   c8        1
    x[12,8]   c27       1
    x[12,8]   OBJ       3
    x[13,8]   c8        1
    x[13,8]   c28       1
    x[13,8]   OBJ       15
    x[14,8]   c8        1
    x[14,8]   c29       1
    x[14,8]   OBJ       15
    x[15,8]   c8        1
    x[15,8]   c30       1
    x[15,8]   OBJ       15
    x[1,9]    c9        1
    x[1,9]    c16       1
    x[1,9]    OBJ       15
    x[2,9]    c9        1
    x[2,9]    c17       1
    x[2,9]    OBJ       5
    x[3,9]    c9        1
    x[3,9]    c18       1
    x[3,9]    OBJ       10
    x[4,9]    c9        1
    x[4,9]    c19       1
    x[4,9]    OBJ       6
    x[5,9]    c9        1
    x[5,9]    c20       1
    x[5,9]    OBJ       5
    x[6,9]    c9        1
    x[6,9]    c21       1
    x[6,9]    OBJ       5
    x[7,9]    c9        1
    x[7,9]    c22       1
    x[7,9]    OBJ       7
    x[8,9]    c9        1
    x[8,9]    c23       1
    x[8,9]    OBJ       15
    x[9,9]    c9        1
    x[9,9]    c24       1
    x[9,9]    OBJ       15
    x[10,9]   c9        1
    x[10,9]   c25       1
    x[10,9]   OBJ       13
    x[11,9]   c9        1
    x[11,9]   c26       1
    x[11,9]   OBJ       10
    x[12,9]   c9        1
    x[12,9]   c27       1
    x[12,9]   OBJ       1
    x[13,9]   c9        1
    x[13,9]   c28       1
    x[13,9]   OBJ       12
    x[14,9]   c9        1
    x[14,9]   c29       1
    x[14,9]   OBJ       11
    x[15,9]   c9        1
    x[15,9]   c30       1
    x[15,9]   OBJ       10
    x[1,10]   c10       1
    x[1,10]   c16       1
    x[1,10]   OBJ       14
    x[2,10]   c10       1
    x[2,10]   c17       1
    x[2,10]   OBJ       14
    x[3,10]   c10       1
    x[3,10]   c18       1
    x[3,10]   OBJ       9
    x[4,10]   c10       1
    x[4,10]   c19       1
    x[4,10]   OBJ       11
    x[5,10]   c10       1
    x[5,10]   c20       1
    x[5,10]   OBJ       14
    x[6,10]   c10       1
    x[6,10]   c21       1
    x[6,10]   OBJ       4
    x[7,10]   c10       1
    x[7,10]   c22       1
    x[7,10]   OBJ       3
    x[8,10]   c10       1
    x[8,10]   c23       1
    x[8,10]   OBJ       11
    x[9,10]   c10       1
    x[9,10]   c24       1
    x[9,10]   OBJ       1
    x[10,10]  c10       1
    x[10,10]  c25       1
    x[10,10]  OBJ       2
    x[11,10]  c10       1
    x[11,10]  c26       1
    x[11,10]  OBJ       15
    x[12,10]  c10       1
    x[12,10]  c27       1
    x[12,10]  OBJ       4
    x[13,10]  c10       1
    x[13,10]  c28       1
    x[13,10]  OBJ       13
    x[14,10]  c10       1
    x[14,10]  c29       1
    x[14,10]  OBJ       3
    x[15,10]  c10       1
    x[15,10]  c30       1
    x[15,10]  OBJ       9
    x[1,11]   c11       1
    x[1,11]   c16       1
    x[1,11]   OBJ       13
    x[2,11]   c11       1
    x[2,11]   c17       1
    x[2,11]   OBJ       7
    x[3,11]   c11       1
    x[3,11]   c18       1
    x[3,11]   OBJ       4
    x[4,11]   c11       1
    x[4,11]   c19       1
    x[4,11]   OBJ       6
    x[5,11]   c11       1
    x[5,11]   c20       1
    x[5,11]   OBJ       15
    x[6,11]   c11       1
    x[6,11]   c21       1
    x[6,11]   OBJ       14
    x[7,11]   c11       1
    x[7,11]   c22       1
    x[7,11]   OBJ       13
    x[8,11]   c11       1
    x[8,11]   c23       1
    x[8,11]   OBJ       14
    x[9,11]   c11       1
    x[9,11]   c24       1
    x[9,11]   OBJ       15
    x[10,11]  c11       1
    x[10,11]  c25       1
    x[10,11]  OBJ       4
    x[11,11]  c11       1
    x[11,11]  c26       1
    x[11,11]  OBJ       1
    x[12,11]  c11       1
    x[12,11]  c27       1
    x[12,11]  OBJ       5
    x[13,11]  c11       1
    x[13,11]  c28       1
    x[13,11]  OBJ       7
    x[14,11]  c11       1
    x[14,11]  c29       1
    x[14,11]  OBJ       8
    x[15,11]  c11       1
    x[15,11]  c30       1
    x[15,11]  OBJ       8
    x[1,12]   c12       1
    x[1,12]   c16       1
    x[1,12]   OBJ       10
    x[2,12]   c12       1
    x[2,12]   c17       1
    x[2,12]   OBJ       5
    x[3,12]   c12       1
    x[3,12]   c18       1
    x[3,12]   OBJ       4
    x[4,12]   c12       1
    x[4,12]   c19       1
    x[4,12]   OBJ       8
    x[5,12]   c12       1
    x[5,12]   c20       1
    x[5,12]   OBJ       13
    x[6,12]   c12       1
    x[6,12]   c21       1
    x[6,12]   OBJ       13
    x[7,12]   c12       1
    x[7,12]   c22       1
    x[7,12]   OBJ       12
    x[8,12]   c12       1
    x[8,12]   c23       1
    x[8,12]   OBJ       12
    x[9,12]   c12       1
    x[9,12]   c24       1
    x[9,12]   OBJ       6
    x[10,12]  c12       1
    x[10,12]  c25       1
    x[10,12]  OBJ       1
    x[11,12]  c12       1
    x[11,12]  c26       1
    x[11,12]  OBJ       4
    x[12,12]  c12       1
    x[12,12]  c27       1
    x[12,12]  OBJ       15
    x[13,12]  c12       1
    x[13,12]  c28       1
    x[13,12]  OBJ       8
    x[14,12]  c12       1
    x[14,12]  c29       1
    x[14,12]  OBJ       13
    x[15,12]  c12       1
    x[15,12]  c30       1
    x[15,12]  OBJ       13
    x[1,13]   c13       1
    x[1,13]   c16       1
    x[1,13]   OBJ       2
    x[2,13]   c13       1
    x[2,13]   c17       1
    x[2,13]   OBJ       14
    x[3,13]   c13       1
    x[3,13]   c18       1
    x[3,13]   OBJ       13
    x[4,13]   c13       1
    x[4,13]   c19       1
    x[4,13]   OBJ       11
    x[5,13]   c13       1
    x[5,13]   c20       1
    x[5,13]   OBJ       7
    x[6,13]   c13       1
    x[6,13]   c21       1
    x[6,13]   OBJ       7
    x[7,13]   c13       1
    x[7,13]   c22       1
    x[7,13]   OBJ       11
    x[8,13]   c13       1
    x[8,13]   c23       1
    x[8,13]   OBJ       15
    x[9,13]   c13       1
    x[9,13]   c24       1
    x[9,13]   OBJ       13
    x[10,13]  c13       1
    x[10,13]  c25       1
    x[10,13]  OBJ       14
    x[11,13]  c13       1
    x[11,13]  c26       1
    x[11,13]  OBJ       15
    x[12,13]  c13       1
    x[12,13]  c27       1
    x[12,13]  OBJ       8
    x[13,13]  c13       1
    x[13,13]  c28       1
    x[13,13]  OBJ       8
    x[14,13]  c13       1
    x[14,13]  c29       1
    x[14,13]  OBJ       10
    x[15,13]  c13       1
    x[15,13]  c30       1
    x[15,13]  OBJ       13
    x[1,14]   c14       1
    x[1,14]   c16       1
    x[1,14]   OBJ       6
    x[2,14]   c14       1
    x[2,14]   c17       1
    x[2,14]   OBJ       15
    x[3,14]   c14       1
    x[3,14]   c18       1
    x[3,14]   OBJ       15
    x[4,14]   c14       1
    x[4,14]   c19       1
    x[4,14]   OBJ       6
    x[5,14]   c14       1
    x[5,14]   c20       1
    x[5,14]   OBJ       6
    x[6,14]   c14       1
    x[6,14]   c21       1
    x[6,14]   OBJ       7
    x[7,14]   c14       1
    x[7,14]   c22       1
    x[7,14]   OBJ       6
    x[8,14]   c14       1
    x[8,14]   c23       1
    x[8,14]   OBJ       8
    x[9,14]   c14       1
    x[9,14]   c24       1
    x[9,14]   OBJ       14
    x[10,14]  c14       1
    x[10,14]  c25       1
    x[10,14]  OBJ       3
    x[11,14]  c14       1
    x[11,14]  c26       1
    x[11,14]  OBJ       5
    x[12,14]  c14       1
    x[12,14]  c27       1
    x[12,14]  OBJ       5
    x[13,14]  c14       1
    x[13,14]  c28       1
    x[13,14]  OBJ       9
    x[14,14]  c14       1
    x[14,14]  c29       1
    x[14,14]  OBJ       12
    x[15,14]  c14       1
    x[15,14]  c30       1
    x[15,14]  OBJ       2
    x[1,15]   c15       1
    x[1,15]   c16       1
    x[1,15]   OBJ       4
    x[2,15]   c15       1
    x[2,15]   c17       1
    x[2,15]   OBJ       7
    x[3,15]   c15       1
    x[3,15]   c18       1
    x[3,15]   OBJ       15
    x[4,15]   c15       1
    x[4,15]   c19       1
    x[4,15]   OBJ       6
    x[5,15]   c15       1
    x[5,15]   c20       1
    x[5,15]   OBJ       10
    x[6,15]   c15       1
    x[6,15]   c21       1
    x[6,15]   OBJ       10
    x[7,15]   c15       1
    x[7,15]   c22       1
    x[7,15]   OBJ       13
    x[8,15]   c15       1
    x[8,15]   c23       1
    x[8,15]   OBJ       11
    x[9,15]   c15       1
    x[9,15]   c24       1
    x[9,15]   OBJ       5
    x[10,15]  c15       1
    x[10,15]  c25       1
    x[10,15]  OBJ       15
    x[11,15]  c15       1
    x[11,15]  c26       1
    x[11,15]  OBJ       8
    x[12,15]  c15       1
    x[12,15]  c27       1
    x[12,15]  OBJ       10
    x[13,15]  c15       1
    x[13,15]  c28       1
    x[13,15]  OBJ       5
    x[14,15]  c15       1
    x[14,15]  c29       1
    x[14,15]  OBJ       14
    x[15,15]  c15       1
    x[15,15]  c30       1
    x[15,15]  OBJ       15
RHS
    rhs       c1        1
    rhs       c2        1
    rhs       c3        1
    rhs       c4        1
    rhs       c5        1
    rhs       c6        1
    rhs       c7        1
    rhs       c8        1
    rhs       c9        1
    rhs       c10       1
    rhs       c11       1
    rhs       c12       1
    rhs       c13       1
    rhs       c14       1
    rhs       c15       1
    rhs       c16       1
    rhs       c17       1
    rhs       c18       1
    rhs       c19       1
    rhs       c20       1
    rhs       c21       1
    rhs       c22       1
    rhs       c23       1
    rhs       c24       1
    rhs       c25       1
    rhs       c26       1
    rhs       c27       1
    rhs       c28       1
    rhs       c29       1
    rhs       c30       1
RANGES
BOUNDS
 BV bounds    x[1,1]
 BV bounds    x[2,1]
 BV bounds    x[3,1]
 BV bounds    x[4,1]
 BV bounds    x[5,1]
 BV bounds    x[6,1]
 BV bounds    x[7,1]
 BV bounds    x[8,1]
 BV bounds    x[9,1]
 BV bounds    x[10,1]
 BV bounds    x[11,1]
 BV bounds    x[12,1]
 BV bounds    x[13,1]
 BV bounds    x[14,1]
 BV bounds    x[15,1]
 BV bounds    x[1,2]
 BV bounds    x[2,2]
 BV bounds    x[3,2]
 BV bounds    x[4,2]
 BV bounds    x[5,2]
 BV bounds    x[6,2]
 BV bounds    x[7,2]
 BV bounds    x[8,2]
 BV bounds    x[9,2]
 BV bounds    x[10,2]
 BV bounds    x[11,2]
 BV bounds    x[12,2]
 BV bounds    x[13,2]
 BV bounds    x[14,2]
 BV bounds    x[15,2]
 BV bounds    x[1,3]
 BV bounds    x[2,3]
 BV bounds    x[3,3]
 BV bounds    x[4,3]
 BV bounds    x[5,3]
 BV bounds    x[6,3]
 BV bounds    x[7,3]
 BV bounds    x[8,3]
 BV bounds    x[9,3]
 BV bounds    x[10,3]
 BV bounds    x[11,3]
 BV bounds    x[12,3]
 BV bounds    x[13,3]
 BV bounds    x[14,3]
 BV bounds    x[15,3]
 BV bounds    x[1,4]
 BV bounds    x[2,4]
 BV bounds    x[3,4]
 BV bounds    x[4,4]
 BV bounds    x[5,4]
 BV bounds    x[6,4]
 BV bounds    x[7,4]
 BV bounds    x[8,4]
 BV bounds    x[9,4]
 BV bounds    x[10,4]
 BV bounds    x[11,4]
 BV bounds    x[12,4]
 BV bounds    x[13,4]
 BV bounds    x[14,4]
 BV bounds    x[15,4]
 BV bounds    x[1,5]
 BV bounds    x[2,5]
 BV bounds    x[3,5]
 BV bounds    x[4,5]
 BV bounds    x[5,5]
 BV bounds    x[6,5]
 BV bounds    x[7,5]
 BV bounds    x[8,5]
 BV bounds    x[9,5]
 BV bounds    x[10,5]
 BV bounds    x[11,5]
 BV bounds    x[12,5]
 BV bounds    x[13,5]
 BV bounds    x[14,5]
 BV bounds    x[15,5]
 BV bounds    x[1,6]
 BV bounds    x[2,6]
 BV bounds    x[3,6]
 BV bounds    x[4,6]
 BV bounds    x[5,6]
 BV bounds    x[6,6]
 BV bounds    x[7,6]
 BV bounds    x[8,6]
 BV bounds    x[9,6]
 BV bounds    x[10,6]
 BV bounds    x[11,6]
 BV bounds    x[12,6]
 BV bounds    x[13,6]
 BV bounds    x[14,6]
 BV bounds    x[15,6]
 BV bounds    x[1,7]
 BV bounds    x[2,7]
 BV bounds    x[3,7]
 BV bounds    x[4,7]
 BV bounds    x[5,7]
 BV bounds    x[6,7]
 BV bounds    x[7,7]
 BV bounds    x[8,7]
 BV bounds    x[9,7]
 BV bounds    x[10,7]
 BV bounds    x[11,7]
 BV bounds    x[12,7]
 BV bounds    x[13,7]
 BV bounds    x[14,7]
 BV bounds    x[15,7]
 BV bounds    x[1,8]
 BV bounds    x[2,8]
 BV bounds    x[3,8]
 BV bounds    x[4,8]
 BV bounds    x[5,8]
 BV bounds    x[6,8]
 BV bounds    x[7,8]
 BV bounds    x[8,8]
 BV bounds    x[9,8]
 BV bounds    x[10,8]
 BV bounds    x[11,8]
 BV bounds    x[12,8]
 BV bounds    x[13,8]
 BV bounds    x[14,8]
 BV bounds    x[15,8]
 BV bounds    x[1,9]
 BV bounds    x[2,9]
 BV bounds    x[3,9]
 BV bounds    x[4,9]
 BV bounds    x[5,9]
 BV bounds    x[6,9]
 BV bounds    x[7,9]
 BV bounds    x[8,9]
 BV bounds    x[9,9]
 BV bounds    x[10,9]
 BV bounds    x[11,9]
 BV bounds    x[12,9]
 BV bounds    x[13,9]
 BV bounds    x[14,9]
 BV bounds    x[15,9]
 BV bounds    x[1,10]
 BV bounds    x[2,10]
 BV bounds    x[3,10]
 BV bounds    x[4,10]
 BV bounds    x[5,10]
 BV bounds    x[6,10]
 BV bounds    x[7,10]
 BV bounds    x[8,10]
 BV bounds    x[9,10]
 BV bounds    x[10,10]
 BV bounds    x[11,10]
 BV bounds    x[12,10]
 BV bounds    x[13,10]
 BV bounds    x[14,10]
 BV bounds    x[15,10]
 BV bounds    x[1,11]
 BV bounds    x[2,11]
 BV bounds    x[3,11]
 BV bounds    x[4,11]
 BV bounds    x[5,11]
 BV bounds    x[6,11]
 BV bounds    x[7,11]
 BV bounds    x[8,11]
 BV bounds    x[9,11]
 BV bounds    x[10,11]
 BV bounds    x[11,11]
 BV bounds    x[12,11]
 BV bounds    x[13,11]
 BV bounds    x[14,11]
 BV bounds    x[15,11]
 BV bounds    x[1,12]
 BV bounds    x[2,12]
 BV bounds    x[3,12]
 BV bounds    x[4,12]
 BV bounds    x[5,12]
 BV bounds    x[6,12]
 BV bounds    x[7,12]
 BV bounds    x[8,12]
 BV bounds    x[9,12]
 BV bounds    x[10,12]
 BV bounds    x[11,12]
 BV bounds    x[12,12]
 BV bounds    x[13,12]
 BV bounds    x[14,12]
 BV bounds    x[15,12]
 BV bounds    x[1,13]
 BV bounds    x[2,13]
 BV bounds    x[3,13]
 BV bounds    x[4,13]
 BV bounds    x[5,13]
 BV bounds    x[6,13]
 BV bounds    x[7,13]
 BV bounds    x[8,13]
 BV bounds    x[9,13]
 BV bounds    x[10,13]
 BV bounds    x[11,13]
 BV bounds    x[12,13]
 BV bounds    x[13,13]
 BV bounds    x[14,13]
 BV bounds    x[15,13]
 BV bounds    x[1,14]
 BV bounds    x[2,14]
 BV bounds    x[3,14]
 BV bounds    x[4,14]
 BV bounds    x[5,14]
 BV bounds    x[6,14]
 BV bounds    x[7,14]
 BV bounds    x[8,14]
 BV bounds    x[9,14]
 BV bounds    x[10,14]
 BV bounds    x[11,14]
 BV bounds    x[12,14]
 BV bounds    x[13,14]
 BV bounds    x[14,14]
 BV bounds    x[15,14]
 BV bounds    x[1,15]
 BV bounds    x[2,15]
 BV bounds    x[3,15]
 BV bounds    x[4,15]
 BV bounds    x[5,15]
 BV bounds    x[6,15]
 BV bounds    x[7,15]
 BV bounds    x[8,15]
 BV bounds    x[9,15]
 BV bounds    x[10,15]
 BV bounds    x[11,15]
 BV bounds    x[12,15]
 BV bounds    x[13,15]
 BV bounds    x[14,15]
 BV bounds    x[15,15]
ENDATA
